0 5002 0 0
1 5002 94 0
2 5002 600 0
3 5002 1016 0
4 5002 2008 0
5 5002 2657 0
6 5002 2894 0
7 5002 3351 1
8 5002 4166 2
9 5002 4612 5
10 5002 5034 10
11 5002 5825 20
12 5002 5947 36
13 5002 6614 71
14 5002 7118 140
15 5002 7118 271
16 5002 7453 541
17 5002 7637 1039
18 5002 7957 1854
19 5002 8711 3507
20 5002 8966 6058
21 5002 9377 11610
22 5002 9377 22330
23 5002 9377 31381
24 5002 10077 55640
25 5002 10077 96014
26 5002 10564 154466
27 5002 10778 241526
28 5002 10905 421821
29 5002 10905 658052
30 5002 10905 968524
31 5002 11823 1528048
32 5002 11823 2511024
33 5002 12731 4409382
34 5002 12731 7012936
35 5002 13167 11123451
